p edge 83 1067
e 1 7
e 1 10
e 1 14
e 1 29
e 1 31
e 1 35
e 1 39
e 1 40
e 1 44
e 1 57
e 1 59
e 1 64
e 1 66
e 1 68
e 1 69
e 1 71
e 1 73
e 1 78
e 2 3
e 2 6
e 2 7
e 2 12
e 2 13
e 2 14
e 2 24
e 2 31
e 2 32
e 2 33
e 2 34
e 2 37
e 2 38
e 2 44
e 2 45
e 2 47
e 2 52
e 2 55
e 2 57
e 2 59
e 2 61
e 2 64
e 2 69
e 2 72
e 2 74
e 2 79
e 2 81
e 3 8
e 3 9
e 3 14
e 3 16
e 3 20
e 3 21
e 3 26
e 3 29
e 3 40
e 3 44
e 3 50
e 3 52
e 3 54
e 3 56
e 3 59
e 3 63
e 3 64
e 3 71
e 3 72
e 3 81
e 4 10
e 4 16
e 4 19
e 4 20
e 4 21
e 4 24
e 4 25
e 4 34
e 4 37
e 4 38
e 4 39
e 4 40
e 4 42
e 4 52
e 4 57
e 4 58
e 4 60
e 4 63
e 4 68
e 4 73
e 4 75
e 4 76
e 4 79
e 4 81
e 5 6
e 5 8
e 5 9
e 5 12
e 5 16
e 5 19
e 5 20
e 5 25
e 5 26
e 5 27
e 5 29
e 5 34
e 5 36
e 5 40
e 5 43
e 5 44
e 5 45
e 5 47
e 5 50
e 5 54
e 5 62
e 5 64
e 5 67
e 5 74
e 5 75
e 5 77
e 5 79
e 5 82
e 5 83
e 6 16
e 6 27
e 6 30
e 6 31
e 6 35
e 6 43
e 6 47
e 6 52
e 6 55
e 6 59
e 6 61
e 6 62
e 6 65
e 6 66
e 6 67
e 6 68
e 6 75
e 6 76
e 6 80
e 6 82
e 7 11
e 7 12
e 7 15
e 7 18
e 7 24
e 7 37
e 7 39
e 7 40
e 7 43
e 7 44
e 7 45
e 7 47
e 7 52
e 7 53
e 7 56
e 7 58
e 7 59
e 7 60
e 7 61
e 7 62
e 7 65
e 7 69
e 7 70
e 7 71
e 7 74
e 7 76
e 7 79
e 7 80
e 7 83
e 8 15
e 8 16
e 8 17
e 8 27
e 8 32
e 8 35
e 8 38
e 8 46
e 8 47
e 8 48
e 8 49
e 8 50
e 8 52
e 8 62
e 8 65
e 8 67
e 8 77
e 8 80
e 8 81
e 8 82
e 8 83
e 9 14
e 9 15
e 9 18
e 9 24
e 9 26
e 9 27
e 9 30
e 9 35
e 9 36
e 9 37
e 9 40
e 9 41
e 9 42
e 9 44
e 9 51
e 9 53
e 9 57
e 9 64
e 9 69
e 9 75
e 9 77
e 9 78
e 9 82
e 9 83
e 10 13
e 10 15
e 10 20
e 10 22
e 10 35
e 10 37
e 10 40
e 10 44
e 10 45
e 10 47
e 10 49
e 10 53
e 10 55
e 10 58
e 10 63
e 10 65
e 10 67
e 10 76
e 10 79
e 10 80
e 10 82
e 11 12
e 11 16
e 11 18
e 11 21
e 11 24
e 11 36
e 11 37
e 11 42
e 11 46
e 11 47
e 11 49
e 11 50
e 11 52
e 11 55
e 11 67
e 11 70
e 11 75
e 11 80
e 12 13
e 12 16
e 12 17
e 12 20
e 12 23
e 12 24
e 12 26
e 12 29
e 12 34
e 12 40
e 12 47
e 12 49
e 12 50
e 12 57
e 12 60
e 12 62
e 12 63
e 12 64
e 12 71
e 12 72
e 12 75
e 12 80
e 12 82
e 12 83
e 13 21
e 13 37
e 13 39
e 13 44
e 13 46
e 13 49
e 13 56
e 13 59
e 13 60
e 13 63
e 13 65
e 13 66
e 13 69
e 13 71
e 13 72
e 13 76
e 13 77
e 13 78
e 13 81
e 14 17
e 14 19
e 14 21
e 14 23
e 14 27
e 14 30
e 14 35
e 14 42
e 14 44
e 14 49
e 14 51
e 14 52
e 14 53
e 14 55
e 14 58
e 14 64
e 14 72
e 14 73
e 14 74
e 14 77
e 14 78
e 14 83
e 15 18
e 15 21
e 15 25
e 15 26
e 15 28
e 15 32
e 15 33
e 15 35
e 15 41
e 15 50
e 15 53
e 15 60
e 15 63
e 15 71
e 15 72
e 15 73
e 15 74
e 15 76
e 15 79
e 15 82
e 16 17
e 16 19
e 16 21
e 16 24
e 16 25
e 16 27
e 16 33
e 16 36
e 16 40
e 16 45
e 16 46
e 16 48
e 16 51
e 16 55
e 16 57
e 16 61
e 16 62
e 16 78
e 16 80
e 16 81
e 17 19
e 17 21
e 17 22
e 17 23
e 17 27
e 17 28
e 17 29
e 17 30
e 17 34
e 17 35
e 17 36
e 17 37
e 17 40
e 17 43
e 17 45
e 17 46
e 17 49
e 17 58
e 17 63
e 17 68
e 17 74
e 17 83
e 18 21
e 18 24
e 18 26
e 18 32
e 18 37
e 18 40
e 18 48
e 18 50
e 18 51
e 18 53
e 18 56
e 18 59
e 18 62
e 18 64
e 18 73
e 18 75
e 18 77
e 18 80
e 18 81
e 19 20
e 19 23
e 19 33
e 19 35
e 19 37
e 19 43
e 19 44
e 19 45
e 19 46
e 19 48
e 19 51
e 19 52
e 19 55
e 19 57
e 19 61
e 19 62
e 19 63
e 19 66
e 19 73
e 19 74
e 19 82
e 20 22
e 20 23
e 20 24
e 20 27
e 20 29
e 20 30
e 20 32
e 20 37
e 20 44
e 20 51
e 20 55
e 20 62
e 20 63
e 20 66
e 20 69
e 20 76
e 20 78
e 20 82
e 21 24
e 21 25
e 21 27
e 21 29
e 21 32
e 21 33
e 21 34
e 21 38
e 21 39
e 21 40
e 21 45
e 21 46
e 21 48
e 21 49
e 21 51
e 21 54
e 21 55
e 21 56
e 21 58
e 21 60
e 21 61
e 21 69
e 21 71
e 21 72
e 21 76
e 21 78
e 21 83
e 22 24
e 22 27
e 22 28
e 22 29
e 22 31
e 22 35
e 22 39
e 22 41
e 22 50
e 22 54
e 22 60
e 22 68
e 22 69
e 22 70
e 22 71
e 22 72
e 22 73
e 22 76
e 22 77
e 22 79
e 22 82
e 23 24
e 23 30
e 23 32
e 23 35
e 23 36
e 23 39
e 23 41
e 23 46
e 23 47
e 23 49
e 23 50
e 23 51
e 23 55
e 23 57
e 23 58
e 23 65
e 23 66
e 23 71
e 23 79
e 23 80
e 23 81
e 24 27
e 24 28
e 24 29
e 24 39
e 24 44
e 24 45
e 24 48
e 24 53
e 24 63
e 24 72
e 24 79
e 24 82
e 25 31
e 25 32
e 25 33
e 25 34
e 25 35
e 25 46
e 25 47
e 25 48
e 25 50
e 25 51
e 25 55
e 25 61
e 25 62
e 25 63
e 25 65
e 25 68
e 25 73
e 25 76
e 25 77
e 25 78
e 25 80
e 26 27
e 26 28
e 26 30
e 26 32
e 26 33
e 26 35
e 26 38
e 26 43
e 26 45
e 26 52
e 26 54
e 26 56
e 26 57
e 26 60
e 26 61
e 26 67
e 26 68
e 26 71
e 26 73
e 26 74
e 26 80
e 26 81
e 26 83
e 27 28
e 27 34
e 27 35
e 27 40
e 27 41
e 27 42
e 27 46
e 27 48
e 27 50
e 27 51
e 27 52
e 27 55
e 27 56
e 27 58
e 27 63
e 27 65
e 27 68
e 27 73
e 28 31
e 28 33
e 28 34
e 28 37
e 28 39
e 28 43
e 28 45
e 28 47
e 28 51
e 28 53
e 28 57
e 28 59
e 28 60
e 28 62
e 28 63
e 28 66
e 28 71
e 28 72
e 28 74
e 28 76
e 28 77
e 28 78
e 28 79
e 28 80
e 28 81
e 29 31
e 29 33
e 29 36
e 29 39
e 29 40
e 29 41
e 29 42
e 29 44
e 29 56
e 29 57
e 29 58
e 29 64
e 29 65
e 29 66
e 29 73
e 29 76
e 29 78
e 29 80
e 29 82
e 30 31
e 30 34
e 30 37
e 30 38
e 30 39
e 30 43
e 30 46
e 30 49
e 30 54
e 30 68
e 30 69
e 30 70
e 30 71
e 30 73
e 30 74
e 30 78
e 30 83
e 31 33
e 31 35
e 31 36
e 31 40
e 31 41
e 31 44
e 31 48
e 31 50
e 31 51
e 31 52
e 31 59
e 31 61
e 31 64
e 31 65
e 31 68
e 31 73
e 31 76
e 31 78
e 31 81
e 31 82
e 31 83
e 32 33
e 32 37
e 32 39
e 32 43
e 32 44
e 32 46
e 32 47
e 32 48
e 32 49
e 32 50
e 32 51
e 32 54
e 32 55
e 32 59
e 32 63
e 32 67
e 32 71
e 32 72
e 32 74
e 32 78
e 32 82
e 32 83
e 33 45
e 33 46
e 33 48
e 33 49
e 33 50
e 33 54
e 33 56
e 33 59
e 33 61
e 33 62
e 33 63
e 33 64
e 33 65
e 33 66
e 33 77
e 33 80
e 33 82
e 33 83
e 34 40
e 34 43
e 34 51
e 34 52
e 34 57
e 34 58
e 34 60
e 34 67
e 34 69
e 34 71
e 34 76
e 34 77
e 34 78
e 34 82
e 34 83
e 35 42
e 35 43
e 35 44
e 35 50
e 35 52
e 35 59
e 35 66
e 35 68
e 35 69
e 35 83
e 36 40
e 36 41
e 36 46
e 36 49
e 36 50
e 36 61
e 36 63
e 36 72
e 36 77
e 37 38
e 37 39
e 37 40
e 37 44
e 37 45
e 37 46
e 37 48
e 37 51
e 37 52
e 37 55
e 37 64
e 37 66
e 37 72
e 37 74
e 37 77
e 37 80
e 37 83
e 38 45
e 38 47
e 38 50
e 38 52
e 38 55
e 38 60
e 38 61
e 38 70
e 38 75
e 38 76
e 38 82
e 39 41
e 39 47
e 39 50
e 39 54
e 39 56
e 39 57
e 39 59
e 39 61
e 39 63
e 39 64
e 39 66
e 39 68
e 39 69
e 39 75
e 39 81
e 40 48
e 40 53
e 40 57
e 40 58
e 40 61
e 40 63
e 40 64
e 40 72
e 40 77
e 40 79
e 40 81
e 41 42
e 41 51
e 41 57
e 41 59
e 41 62
e 41 67
e 41 69
e 41 70
e 41 77
e 42 44
e 42 45
e 42 46
e 42 48
e 42 49
e 42 51
e 42 57
e 42 64
e 42 65
e 42 67
e 42 71
e 42 72
e 42 78
e 42 81
e 43 44
e 43 45
e 43 46
e 43 48
e 43 51
e 43 55
e 43 59
e 43 64
e 43 66
e 43 67
e 43 71
e 43 74
e 43 76
e 43 77
e 43 79
e 43 80
e 43 81
e 44 45
e 44 46
e 44 50
e 44 51
e 44 54
e 44 56
e 44 60
e 44 63
e 44 64
e 44 65
e 44 66
e 44 67
e 44 76
e 44 80
e 45 46
e 45 50
e 45 60
e 45 61
e 45 69
e 45 71
e 45 75
e 45 78
e 45 81
e 46 47
e 46 48
e 46 49
e 46 50
e 46 58
e 46 59
e 46 60
e 46 62
e 46 68
e 46 70
e 46 71
e 46 73
e 46 74
e 46 75
e 46 79
e 46 83
e 47 49
e 47 51
e 47 54
e 47 60
e 47 63
e 47 66
e 47 82
e 47 83
e 48 49
e 48 53
e 48 71
e 48 73
e 48 81
e 48 83
e 49 50
e 49 53
e 49 55
e 49 60
e 49 62
e 49 64
e 49 78
e 49 81
e 49 82
e 49 83
e 50 51
e 50 52
e 50 62
e 50 64
e 50 65
e 50 66
e 50 68
e 50 70
e 50 71
e 50 72
e 50 73
e 50 77
e 50 80
e 51 53
e 51 54
e 51 55
e 51 57
e 51 65
e 51 71
e 51 72
e 51 73
e 51 74
e 51 75
e 51 77
e 51 80
e 51 81
e 51 82
e 52 53
e 52 55
e 52 59
e 52 66
e 52 67
e 52 68
e 52 70
e 52 71
e 52 73
e 53 54
e 53 59
e 53 61
e 53 62
e 53 72
e 53 76
e 53 81
e 53 82
e 54 57
e 54 59
e 54 64
e 54 66
e 54 68
e 54 74
e 54 75
e 54 76
e 54 80
e 54 81
e 54 82
e 54 83
e 55 61
e 55 62
e 55 66
e 55 70
e 55 72
e 55 73
e 55 83
e 56 57
e 56 64
e 56 65
e 56 67
e 56 71
e 56 73
e 56 74
e 56 78
e 57 58
e 57 65
e 57 73
e 57 77
e 57 79
e 57 81
e 57 83
e 58 60
e 58 61
e 58 63
e 58 65
e 58 68
e 58 69
e 58 70
e 58 71
e 58 73
e 58 76
e 58 77
e 59 62
e 59 64
e 59 71
e 59 80
e 59 82
e 60 67
e 60 68
e 60 69
e 60 74
e 60 76
e 60 78
e 60 79
e 60 83
e 61 64
e 61 66
e 61 68
e 61 73
e 61 75
e 61 76
e 61 78
e 61 79
e 62 63
e 62 68
e 62 77
e 62 78
e 62 80
e 63 65
e 63 68
e 63 74
e 63 75
e 63 78
e 63 79
e 63 81
e 64 68
e 64 69
e 64 71
e 64 78
e 64 80
e 64 81
e 65 74
e 65 82
e 66 67
e 66 69
e 66 71
e 66 76
e 66 78
e 66 79
e 66 81
e 67 69
e 67 70
e 67 71
e 68 69
e 68 72
e 68 76
e 68 77
e 68 79
e 69 70
e 69 71
e 69 74
e 69 75
e 69 76
e 69 77
e 70 76
e 70 79
e 70 82
e 71 73
e 71 75
e 71 79
e 71 81
e 72 73
e 72 76
e 72 77
e 72 78
e 72 81
e 73 77
e 74 77
e 75 79
e 76 83
e 77 80
e 77 83
e 78 79
e 78 81
e 78 82
e 80 82
e 81 82
e 81 83
